NAME          COPTPROB
OBJSENSE
  MIN
ROWS
 N  __OBJ___
 L  C21     
 L  C46     
 L  C63     
 L  C84     
 L  C125    
 L  C127    
 L  C178    
 L  C181    
 L  C187    
 L  C198    
COLUMNS
    MARKER    'MARKER'                 'INTORG'
    x13       __OBJ___  747
    x13       C125      -1
    x13       C178      -1
    x20       __OBJ___  438
    x20       C63       -1
    x92       __OBJ___  419
    x92       C46       -1
    x92       C198      -1
    x93       __OBJ___  423
    x93       C84       -1
    x94       __OBJ___  483
    x94       C127      -1
    x104      __OBJ___  636
    x104      C46       -1
    x104      C63       -1
    x112      __OBJ___  521
    x112      C127      -1
    x112      C178      -1
    x129      __OBJ___  182
    x129      C21       -1
    x191      __OBJ___  593
    x191      C84       -1
    x191      C125      -1
    x203      __OBJ___  489
    x203      C63       -1
    x203      C187      -1
    x252      __OBJ___  184
    x252      C187      -1
    x274      __OBJ___  833
    x274      C127      -1
    x274      C181      -1
    x292      __OBJ___  752
    x292      C84       -1
    x292      C198      -1
    x322      __OBJ___  315
    x322      C125      -1
    x326      __OBJ___  312
    x326      C21       -1
    x326      C187      -1
    x335      __OBJ___  677
    x335      C21       -1
    x335      C181      -1
    x362      __OBJ___  617
    x362      C181      -1
    MARKER    'MARKER'                 'INTEND'
RHS
    RHS       __OBJ___  -25759
    RHS       C21       -1
    RHS       C46       -1
    RHS       C63       -1
    RHS       C84       -1
    RHS       C125      -1
    RHS       C127      -1
    RHS       C178      -1
    RHS       C181      -1
    RHS       C187      -1
    RHS       C198      -1
BOUNDS
 UP BOUND     x13       1
 UP BOUND     x20       1
 UP BOUND     x92       1
 UP BOUND     x93       1
 UP BOUND     x94       1
 UP BOUND     x104      1
 UP BOUND     x112      1
 UP BOUND     x129      1
 UP BOUND     x191      1
 UP BOUND     x203      1
 UP BOUND     x252      1
 UP BOUND     x274      1
 UP BOUND     x292      1
 UP BOUND     x322      1
 UP BOUND     x326      1
 UP BOUND     x335      1
 UP BOUND     x362      1
ENDATA
